30
0   152   155
1   151   153
2   151   154
3   154   154
4   81   79
5   77   76
6   79   76
7   79   79
8   42   38
9   43   41
10   40   43
11   39   42
12   19   21
13   19   19
14   19   24
15   23   19
16   13   15
17   11   13
18   15   10
19   14   11
20   4   4
21   5   2
22   3   2
23   6   2
24   4   3
25   1   4
26   5   6
27   1   2
28   6   6
29   3   1
300
